InboundTrucks  = 10;
OutboundTrucks = 10;
InboundDoors   = 8;
OutboundDoors  = 8;
ReleaseTime    = [7,18,89,36,67,97,80,100,94,28];
UnloadTime     = [12,13,21,17,33,24,24,27,24,22];
LoadTime       = [5,10,12,25,24,12,19,20,11,17];
TransferTime   = [| 2,4,0,0,0,0,0,0,0,8 | 3,4,0,0,0,0,0,0,0,0 | 0,0,0,8,0,0,0,0,0,0 | 0,0,0,0,3,6,4,0,0,0 | 0,4,0,0,0,0,0,6,0,0 | 0,8,0,0,0,0,0,5,0,3 | 0,0,0,7,7,0,0,0,8,6 | 0,0,0,0,4,0,4,4,0,0 | 0,5,7,0,0,0,0,4,7,8 | 4,0,0,0,0,0,0,0,0,5 |];
